p tw 170 542
0 1
0 2
0 95
0 96
1 2
1 8
1 40
1 124
1 133
1 138
1 139
1 140
2 7
2 74
3 4
3 14
3 48
3 152
3 158
4 16
4 132
4 146
4 166
4 168
4 169
5 6
5 97
5 135
6 31
6 98
6 105
6 148
6 149
7 8
7 9
7 74
8 9
8 40
8 124
8 133
8 138
8 139
8 140
9 112
9 113
9 114
10 11
10 12
10 13
10 14
10 15
10 16
10 17
10 106
11 12
11 13
11 14
11 15
11 16
11 17
11 52
11 53
12 13
12 14
12 15
12 16
12 17
12 33
12 41
12 42
12 43
12 44
12 45
13 14
13 15
13 16
13 17
13 61
13 163
14 15
14 16
14 17
14 48
14 152
14 158
15 16
15 17
15 25
15 57
15 94
16 17
16 132
16 146
16 166
16 168
16 169
17 145
18 19
18 20
18 21
18 47
18 66
18 121
18 122
18 123
19 20
19 21
19 56
19 90
19 115
19 141
19 167
20 21
20 89
21 32
22 23
22 34
22 154
23 35
23 111
23 155
23 156
23 157
24 25
24 26
24 59
24 122
24 144
24 167
25 26
25 57
25 94
26 115
26 116
26 117
27 28
27 50
27 51
28 67
29 30
29 31
29 104
29 129
29 157
29 160
29 161
30 31
30 103
31 98
31 105
31 148
31 149
32 46
32 47
33 34
33 35
33 41
33 42
33 43
33 44
33 45
34 35
34 154
35 111
35 155
35 156
35 157
36 37
36 38
36 39
36 40
36 110
37 38
37 39
37 40
37 107
37 108
37 109
38 39
38 40
38 79
38 80
38 81
38 82
38 83
38 84
39 40
39 136
40 124
40 133
40 138
40 139
40 140
41 42
41 43
41 44
41 45
41 52
41 61
42 43
42 44
42 45
42 153
42 154
42 155
43 44
43 45
43 53
43 106
44 45
44 101
44 158
44 169
45 147
45 163
45 168
46 47
46 65
46 75
46 76
47 66
47 121
47 122
47 123
48 49
48 152
48 158
49 99
49 100
49 101
50 51
50 64
50 65
50 66
50 67
50 68
51 123
52 53
52 61
53 106
54 55
54 56
54 91
54 116
55 56
55 99
55 117
55 119
55 150
55 151
55 152
56 90
56 115
56 141
56 167
57 58
57 59
57 60
57 94
58 59
58 60
58 78
58 109
58 110
58 112
58 139
58 143
59 60
59 122
59 144
59 167
60 114
61 163
62 63
62 128
62 156
63 111
64 65
64 66
64 67
64 68
64 92
65 66
65 67
65 68
65 75
65 76
66 67
66 68
66 121
66 122
66 123
67 68
68 93
68 134
69 70
69 71
69 84
69 135
69 149
70 71
70 124
70 125
70 126
71 130
71 148
71 160
71 162
72 73
72 142
72 151
72 164
73 150
74 76
74 95
74 107
74 113
74 133
74 134
75 76
75 92
75 93
76 95
76 107
76 113
76 133
76 134
77 78
77 140
78 109
78 110
78 112
78 139
78 143
79 80
79 81
79 82
79 83
79 84
79 127
80 81
80 82
80 83
80 84
80 85
80 86
80 87
81 82
81 83
81 84
81 88
81 159
82 83
82 84
82 108
82 136
82 137
83 84
83 97
83 98
84 135
84 149
85 86
85 87
85 88
86 87
86 127
87 137
87 159
88 159
89 121
89 141
90 91
90 115
90 141
90 167
91 116
92 93
93 134
94 143
94 144
95 96
95 107
95 113
95 133
95 134
96 138
97 98
97 135
98 105
98 148
98 149
99 100
99 101
99 117
99 119
99 150
99 151
99 152
100 101
100 118
100 142
101 158
101 169
102 103
102 104
102 105
102 165
103 104
103 105
104 105
104 129
104 157
104 160
104 161
105 148
105 149
107 108
107 109
107 113
107 133
107 134
108 109
108 136
108 137
109 110
109 112
109 139
109 143
110 112
110 139
110 143
111 155
111 156
111 157
112 113
112 114
112 139
112 143
113 114
113 133
113 134
115 116
115 117
115 141
115 167
116 117
117 119
117 150
117 151
117 152
118 119
118 120
118 142
119 120
119 150
119 151
119 152
120 164
121 122
121 123
121 141
122 123
122 144
122 167
124 125
124 126
124 133
124 138
124 139
124 140
125 126
125 162
125 166
126 130
126 131
126 132
128 129
128 156
129 157
129 160
129 161
130 131
130 132
130 148
130 160
130 162
131 132
131 147
132 146
132 166
132 168
132 169
133 134
133 138
133 139
133 140
135 149
136 137
137 159
138 139
138 140
139 140
139 143
141 167
142 151
142 164
143 144
144 167
145 146
146 166
146 168
146 169
147 163
147 168
148 149
148 160
148 162
150 151
150 152
151 152
151 164
152 158
153 154
153 155
153 161
153 165
154 155
155 156
155 157
156 157
157 160
157 161
158 169
160 161
160 162
161 165
162 166
163 168
166 168
166 169
168 169
